c *********************************
c * Circuit generated by BenCGen
c *
c * Parity_407
c *
c * Ports with 1 gate(s): 1
c * Ports with 2 gate(s): 407
c * Total gates: 408
c *********************************
p cnf 815 1629
1 410 0
-1 -410 0
1 -409 0
410 -409 0
-1 -410 409 0
1 2 -411 0
-1 2 411 0
1 -2 411 0
-1 -2 -411 0
3 4 -412 0
-3 4 412 0
3 -4 412 0
-3 -4 -412 0
5 6 -413 0
-5 6 413 0
5 -6 413 0
-5 -6 -413 0
7 8 -414 0
-7 8 414 0
7 -8 414 0
-7 -8 -414 0
9 10 -415 0
-9 10 415 0
9 -10 415 0
-9 -10 -415 0
11 12 -416 0
-11 12 416 0
11 -12 416 0
-11 -12 -416 0
13 14 -417 0
-13 14 417 0
13 -14 417 0
-13 -14 -417 0
15 16 -418 0
-15 16 418 0
15 -16 418 0
-15 -16 -418 0
17 18 -419 0
-17 18 419 0
17 -18 419 0
-17 -18 -419 0
19 20 -420 0
-19 20 420 0
19 -20 420 0
-19 -20 -420 0
21 22 -421 0
-21 22 421 0
21 -22 421 0
-21 -22 -421 0
23 24 -422 0
-23 24 422 0
23 -24 422 0
-23 -24 -422 0
25 26 -423 0
-25 26 423 0
25 -26 423 0
-25 -26 -423 0
27 28 -424 0
-27 28 424 0
27 -28 424 0
-27 -28 -424 0
29 30 -425 0
-29 30 425 0
29 -30 425 0
-29 -30 -425 0
31 32 -426 0
-31 32 426 0
31 -32 426 0
-31 -32 -426 0
33 34 -427 0
-33 34 427 0
33 -34 427 0
-33 -34 -427 0
35 36 -428 0
-35 36 428 0
35 -36 428 0
-35 -36 -428 0
37 38 -429 0
-37 38 429 0
37 -38 429 0
-37 -38 -429 0
39 40 -430 0
-39 40 430 0
39 -40 430 0
-39 -40 -430 0
41 42 -431 0
-41 42 431 0
41 -42 431 0
-41 -42 -431 0
43 44 -432 0
-43 44 432 0
43 -44 432 0
-43 -44 -432 0
45 46 -433 0
-45 46 433 0
45 -46 433 0
-45 -46 -433 0
47 48 -434 0
-47 48 434 0
47 -48 434 0
-47 -48 -434 0
49 50 -435 0
-49 50 435 0
49 -50 435 0
-49 -50 -435 0
51 52 -436 0
-51 52 436 0
51 -52 436 0
-51 -52 -436 0
53 54 -437 0
-53 54 437 0
53 -54 437 0
-53 -54 -437 0
55 56 -438 0
-55 56 438 0
55 -56 438 0
-55 -56 -438 0
57 58 -439 0
-57 58 439 0
57 -58 439 0
-57 -58 -439 0
59 60 -440 0
-59 60 440 0
59 -60 440 0
-59 -60 -440 0
61 62 -441 0
-61 62 441 0
61 -62 441 0
-61 -62 -441 0
63 64 -442 0
-63 64 442 0
63 -64 442 0
-63 -64 -442 0
65 66 -443 0
-65 66 443 0
65 -66 443 0
-65 -66 -443 0
67 68 -444 0
-67 68 444 0
67 -68 444 0
-67 -68 -444 0
69 70 -445 0
-69 70 445 0
69 -70 445 0
-69 -70 -445 0
71 72 -446 0
-71 72 446 0
71 -72 446 0
-71 -72 -446 0
73 74 -447 0
-73 74 447 0
73 -74 447 0
-73 -74 -447 0
75 76 -448 0
-75 76 448 0
75 -76 448 0
-75 -76 -448 0
77 78 -449 0
-77 78 449 0
77 -78 449 0
-77 -78 -449 0
79 80 -450 0
-79 80 450 0
79 -80 450 0
-79 -80 -450 0
81 82 -451 0
-81 82 451 0
81 -82 451 0
-81 -82 -451 0
83 84 -452 0
-83 84 452 0
83 -84 452 0
-83 -84 -452 0
85 86 -453 0
-85 86 453 0
85 -86 453 0
-85 -86 -453 0
87 88 -454 0
-87 88 454 0
87 -88 454 0
-87 -88 -454 0
89 90 -455 0
-89 90 455 0
89 -90 455 0
-89 -90 -455 0
91 92 -456 0
-91 92 456 0
91 -92 456 0
-91 -92 -456 0
93 94 -457 0
-93 94 457 0
93 -94 457 0
-93 -94 -457 0
95 96 -458 0
-95 96 458 0
95 -96 458 0
-95 -96 -458 0
97 98 -459 0
-97 98 459 0
97 -98 459 0
-97 -98 -459 0
99 100 -460 0
-99 100 460 0
99 -100 460 0
-99 -100 -460 0
101 102 -461 0
-101 102 461 0
101 -102 461 0
-101 -102 -461 0
103 104 -462 0
-103 104 462 0
103 -104 462 0
-103 -104 -462 0
105 106 -463 0
-105 106 463 0
105 -106 463 0
-105 -106 -463 0
107 108 -464 0
-107 108 464 0
107 -108 464 0
-107 -108 -464 0
109 110 -465 0
-109 110 465 0
109 -110 465 0
-109 -110 -465 0
111 112 -466 0
-111 112 466 0
111 -112 466 0
-111 -112 -466 0
113 114 -467 0
-113 114 467 0
113 -114 467 0
-113 -114 -467 0
115 116 -468 0
-115 116 468 0
115 -116 468 0
-115 -116 -468 0
117 118 -469 0
-117 118 469 0
117 -118 469 0
-117 -118 -469 0
119 120 -470 0
-119 120 470 0
119 -120 470 0
-119 -120 -470 0
121 122 -471 0
-121 122 471 0
121 -122 471 0
-121 -122 -471 0
123 124 -472 0
-123 124 472 0
123 -124 472 0
-123 -124 -472 0
125 126 -473 0
-125 126 473 0
125 -126 473 0
-125 -126 -473 0
127 128 -474 0
-127 128 474 0
127 -128 474 0
-127 -128 -474 0
129 130 -475 0
-129 130 475 0
129 -130 475 0
-129 -130 -475 0
131 132 -476 0
-131 132 476 0
131 -132 476 0
-131 -132 -476 0
133 134 -477 0
-133 134 477 0
133 -134 477 0
-133 -134 -477 0
135 136 -478 0
-135 136 478 0
135 -136 478 0
-135 -136 -478 0
137 138 -479 0
-137 138 479 0
137 -138 479 0
-137 -138 -479 0
139 140 -480 0
-139 140 480 0
139 -140 480 0
-139 -140 -480 0
141 142 -481 0
-141 142 481 0
141 -142 481 0
-141 -142 -481 0
143 144 -482 0
-143 144 482 0
143 -144 482 0
-143 -144 -482 0
145 146 -483 0
-145 146 483 0
145 -146 483 0
-145 -146 -483 0
147 148 -484 0
-147 148 484 0
147 -148 484 0
-147 -148 -484 0
149 150 -485 0
-149 150 485 0
149 -150 485 0
-149 -150 -485 0
151 152 -486 0
-151 152 486 0
151 -152 486 0
-151 -152 -486 0
153 154 -487 0
-153 154 487 0
153 -154 487 0
-153 -154 -487 0
155 156 -488 0
-155 156 488 0
155 -156 488 0
-155 -156 -488 0
157 158 -489 0
-157 158 489 0
157 -158 489 0
-157 -158 -489 0
159 160 -490 0
-159 160 490 0
159 -160 490 0
-159 -160 -490 0
161 162 -491 0
-161 162 491 0
161 -162 491 0
-161 -162 -491 0
163 164 -492 0
-163 164 492 0
163 -164 492 0
-163 -164 -492 0
165 166 -493 0
-165 166 493 0
165 -166 493 0
-165 -166 -493 0
167 168 -494 0
-167 168 494 0
167 -168 494 0
-167 -168 -494 0
169 170 -495 0
-169 170 495 0
169 -170 495 0
-169 -170 -495 0
171 172 -496 0
-171 172 496 0
171 -172 496 0
-171 -172 -496 0
173 174 -497 0
-173 174 497 0
173 -174 497 0
-173 -174 -497 0
175 176 -498 0
-175 176 498 0
175 -176 498 0
-175 -176 -498 0
177 178 -499 0
-177 178 499 0
177 -178 499 0
-177 -178 -499 0
179 180 -500 0
-179 180 500 0
179 -180 500 0
-179 -180 -500 0
181 182 -501 0
-181 182 501 0
181 -182 501 0
-181 -182 -501 0
183 184 -502 0
-183 184 502 0
183 -184 502 0
-183 -184 -502 0
185 186 -503 0
-185 186 503 0
185 -186 503 0
-185 -186 -503 0
187 188 -504 0
-187 188 504 0
187 -188 504 0
-187 -188 -504 0
189 190 -505 0
-189 190 505 0
189 -190 505 0
-189 -190 -505 0
191 192 -506 0
-191 192 506 0
191 -192 506 0
-191 -192 -506 0
193 194 -507 0
-193 194 507 0
193 -194 507 0
-193 -194 -507 0
195 196 -508 0
-195 196 508 0
195 -196 508 0
-195 -196 -508 0
197 198 -509 0
-197 198 509 0
197 -198 509 0
-197 -198 -509 0
199 200 -510 0
-199 200 510 0
199 -200 510 0
-199 -200 -510 0
201 202 -511 0
-201 202 511 0
201 -202 511 0
-201 -202 -511 0
203 204 -512 0
-203 204 512 0
203 -204 512 0
-203 -204 -512 0
205 206 -513 0
-205 206 513 0
205 -206 513 0
-205 -206 -513 0
207 208 -514 0
-207 208 514 0
207 -208 514 0
-207 -208 -514 0
209 210 -515 0
-209 210 515 0
209 -210 515 0
-209 -210 -515 0
211 212 -516 0
-211 212 516 0
211 -212 516 0
-211 -212 -516 0
213 214 -517 0
-213 214 517 0
213 -214 517 0
-213 -214 -517 0
215 216 -518 0
-215 216 518 0
215 -216 518 0
-215 -216 -518 0
217 218 -519 0
-217 218 519 0
217 -218 519 0
-217 -218 -519 0
219 220 -520 0
-219 220 520 0
219 -220 520 0
-219 -220 -520 0
221 222 -521 0
-221 222 521 0
221 -222 521 0
-221 -222 -521 0
223 224 -522 0
-223 224 522 0
223 -224 522 0
-223 -224 -522 0
225 226 -523 0
-225 226 523 0
225 -226 523 0
-225 -226 -523 0
227 228 -524 0
-227 228 524 0
227 -228 524 0
-227 -228 -524 0
229 230 -525 0
-229 230 525 0
229 -230 525 0
-229 -230 -525 0
231 232 -526 0
-231 232 526 0
231 -232 526 0
-231 -232 -526 0
233 234 -527 0
-233 234 527 0
233 -234 527 0
-233 -234 -527 0
235 236 -528 0
-235 236 528 0
235 -236 528 0
-235 -236 -528 0
237 238 -529 0
-237 238 529 0
237 -238 529 0
-237 -238 -529 0
239 240 -530 0
-239 240 530 0
239 -240 530 0
-239 -240 -530 0
241 242 -531 0
-241 242 531 0
241 -242 531 0
-241 -242 -531 0
243 244 -532 0
-243 244 532 0
243 -244 532 0
-243 -244 -532 0
245 246 -533 0
-245 246 533 0
245 -246 533 0
-245 -246 -533 0
247 248 -534 0
-247 248 534 0
247 -248 534 0
-247 -248 -534 0
249 250 -535 0
-249 250 535 0
249 -250 535 0
-249 -250 -535 0
251 252 -536 0
-251 252 536 0
251 -252 536 0
-251 -252 -536 0
253 254 -537 0
-253 254 537 0
253 -254 537 0
-253 -254 -537 0
255 256 -538 0
-255 256 538 0
255 -256 538 0
-255 -256 -538 0
257 258 -539 0
-257 258 539 0
257 -258 539 0
-257 -258 -539 0
259 260 -540 0
-259 260 540 0
259 -260 540 0
-259 -260 -540 0
261 262 -541 0
-261 262 541 0
261 -262 541 0
-261 -262 -541 0
263 264 -542 0
-263 264 542 0
263 -264 542 0
-263 -264 -542 0
265 266 -543 0
-265 266 543 0
265 -266 543 0
-265 -266 -543 0
267 268 -544 0
-267 268 544 0
267 -268 544 0
-267 -268 -544 0
269 270 -545 0
-269 270 545 0
269 -270 545 0
-269 -270 -545 0
271 272 -546 0
-271 272 546 0
271 -272 546 0
-271 -272 -546 0
273 274 -547 0
-273 274 547 0
273 -274 547 0
-273 -274 -547 0
275 276 -548 0
-275 276 548 0
275 -276 548 0
-275 -276 -548 0
277 278 -549 0
-277 278 549 0
277 -278 549 0
-277 -278 -549 0
279 280 -550 0
-279 280 550 0
279 -280 550 0
-279 -280 -550 0
281 282 -551 0
-281 282 551 0
281 -282 551 0
-281 -282 -551 0
283 284 -552 0
-283 284 552 0
283 -284 552 0
-283 -284 -552 0
285 286 -553 0
-285 286 553 0
285 -286 553 0
-285 -286 -553 0
287 288 -554 0
-287 288 554 0
287 -288 554 0
-287 -288 -554 0
289 290 -555 0
-289 290 555 0
289 -290 555 0
-289 -290 -555 0
291 292 -556 0
-291 292 556 0
291 -292 556 0
-291 -292 -556 0
293 294 -557 0
-293 294 557 0
293 -294 557 0
-293 -294 -557 0
295 296 -558 0
-295 296 558 0
295 -296 558 0
-295 -296 -558 0
297 298 -559 0
-297 298 559 0
297 -298 559 0
-297 -298 -559 0
299 300 -560 0
-299 300 560 0
299 -300 560 0
-299 -300 -560 0
301 302 -561 0
-301 302 561 0
301 -302 561 0
-301 -302 -561 0
303 304 -562 0
-303 304 562 0
303 -304 562 0
-303 -304 -562 0
305 306 -563 0
-305 306 563 0
305 -306 563 0
-305 -306 -563 0
307 308 -564 0
-307 308 564 0
307 -308 564 0
-307 -308 -564 0
309 310 -565 0
-309 310 565 0
309 -310 565 0
-309 -310 -565 0
311 312 -566 0
-311 312 566 0
311 -312 566 0
-311 -312 -566 0
313 314 -567 0
-313 314 567 0
313 -314 567 0
-313 -314 -567 0
315 316 -568 0
-315 316 568 0
315 -316 568 0
-315 -316 -568 0
317 318 -569 0
-317 318 569 0
317 -318 569 0
-317 -318 -569 0
319 320 -570 0
-319 320 570 0
319 -320 570 0
-319 -320 -570 0
321 322 -571 0
-321 322 571 0
321 -322 571 0
-321 -322 -571 0
323 324 -572 0
-323 324 572 0
323 -324 572 0
-323 -324 -572 0
325 326 -573 0
-325 326 573 0
325 -326 573 0
-325 -326 -573 0
327 328 -574 0
-327 328 574 0
327 -328 574 0
-327 -328 -574 0
329 330 -575 0
-329 330 575 0
329 -330 575 0
-329 -330 -575 0
331 332 -576 0
-331 332 576 0
331 -332 576 0
-331 -332 -576 0
333 334 -577 0
-333 334 577 0
333 -334 577 0
-333 -334 -577 0
335 336 -578 0
-335 336 578 0
335 -336 578 0
-335 -336 -578 0
337 338 -579 0
-337 338 579 0
337 -338 579 0
-337 -338 -579 0
339 340 -580 0
-339 340 580 0
339 -340 580 0
-339 -340 -580 0
341 342 -581 0
-341 342 581 0
341 -342 581 0
-341 -342 -581 0
343 344 -582 0
-343 344 582 0
343 -344 582 0
-343 -344 -582 0
345 346 -583 0
-345 346 583 0
345 -346 583 0
-345 -346 -583 0
347 348 -584 0
-347 348 584 0
347 -348 584 0
-347 -348 -584 0
349 350 -585 0
-349 350 585 0
349 -350 585 0
-349 -350 -585 0
351 352 -586 0
-351 352 586 0
351 -352 586 0
-351 -352 -586 0
353 354 -587 0
-353 354 587 0
353 -354 587 0
-353 -354 -587 0
355 356 -588 0
-355 356 588 0
355 -356 588 0
-355 -356 -588 0
357 358 -589 0
-357 358 589 0
357 -358 589 0
-357 -358 -589 0
359 360 -590 0
-359 360 590 0
359 -360 590 0
-359 -360 -590 0
361 362 -591 0
-361 362 591 0
361 -362 591 0
-361 -362 -591 0
363 364 -592 0
-363 364 592 0
363 -364 592 0
-363 -364 -592 0
365 366 -593 0
-365 366 593 0
365 -366 593 0
-365 -366 -593 0
367 368 -594 0
-367 368 594 0
367 -368 594 0
-367 -368 -594 0
369 370 -595 0
-369 370 595 0
369 -370 595 0
-369 -370 -595 0
371 372 -596 0
-371 372 596 0
371 -372 596 0
-371 -372 -596 0
373 374 -597 0
-373 374 597 0
373 -374 597 0
-373 -374 -597 0
375 376 -598 0
-375 376 598 0
375 -376 598 0
-375 -376 -598 0
377 378 -599 0
-377 378 599 0
377 -378 599 0
-377 -378 -599 0
379 380 -600 0
-379 380 600 0
379 -380 600 0
-379 -380 -600 0
381 382 -601 0
-381 382 601 0
381 -382 601 0
-381 -382 -601 0
383 384 -602 0
-383 384 602 0
383 -384 602 0
-383 -384 -602 0
385 386 -603 0
-385 386 603 0
385 -386 603 0
-385 -386 -603 0
387 388 -604 0
-387 388 604 0
387 -388 604 0
-387 -388 -604 0
389 390 -605 0
-389 390 605 0
389 -390 605 0
-389 -390 -605 0
391 392 -606 0
-391 392 606 0
391 -392 606 0
-391 -392 -606 0
393 394 -607 0
-393 394 607 0
393 -394 607 0
-393 -394 -607 0
395 396 -608 0
-395 396 608 0
395 -396 608 0
-395 -396 -608 0
397 398 -609 0
-397 398 609 0
397 -398 609 0
-397 -398 -609 0
399 400 -610 0
-399 400 610 0
399 -400 610 0
-399 -400 -610 0
401 402 -611 0
-401 402 611 0
401 -402 611 0
-401 -402 -611 0
403 404 -612 0
-403 404 612 0
403 -404 612 0
-403 -404 -612 0
405 406 -613 0
-405 406 613 0
405 -406 613 0
-405 -406 -613 0
411 412 -614 0
-411 412 614 0
411 -412 614 0
-411 -412 -614 0
413 414 -615 0
-413 414 615 0
413 -414 615 0
-413 -414 -615 0
415 416 -616 0
-415 416 616 0
415 -416 616 0
-415 -416 -616 0
417 418 -617 0
-417 418 617 0
417 -418 617 0
-417 -418 -617 0
419 420 -618 0
-419 420 618 0
419 -420 618 0
-419 -420 -618 0
421 422 -619 0
-421 422 619 0
421 -422 619 0
-421 -422 -619 0
423 424 -620 0
-423 424 620 0
423 -424 620 0
-423 -424 -620 0
425 426 -621 0
-425 426 621 0
425 -426 621 0
-425 -426 -621 0
427 428 -622 0
-427 428 622 0
427 -428 622 0
-427 -428 -622 0
429 430 -623 0
-429 430 623 0
429 -430 623 0
-429 -430 -623 0
431 432 -624 0
-431 432 624 0
431 -432 624 0
-431 -432 -624 0
433 434 -625 0
-433 434 625 0
433 -434 625 0
-433 -434 -625 0
435 436 -626 0
-435 436 626 0
435 -436 626 0
-435 -436 -626 0
437 438 -627 0
-437 438 627 0
437 -438 627 0
-437 -438 -627 0
439 440 -628 0
-439 440 628 0
439 -440 628 0
-439 -440 -628 0
441 442 -629 0
-441 442 629 0
441 -442 629 0
-441 -442 -629 0
443 444 -630 0
-443 444 630 0
443 -444 630 0
-443 -444 -630 0
445 446 -631 0
-445 446 631 0
445 -446 631 0
-445 -446 -631 0
447 448 -632 0
-447 448 632 0
447 -448 632 0
-447 -448 -632 0
449 450 -633 0
-449 450 633 0
449 -450 633 0
-449 -450 -633 0
451 452 -634 0
-451 452 634 0
451 -452 634 0
-451 -452 -634 0
453 454 -635 0
-453 454 635 0
453 -454 635 0
-453 -454 -635 0
455 456 -636 0
-455 456 636 0
455 -456 636 0
-455 -456 -636 0
457 458 -637 0
-457 458 637 0
457 -458 637 0
-457 -458 -637 0
459 460 -638 0
-459 460 638 0
459 -460 638 0
-459 -460 -638 0
461 462 -639 0
-461 462 639 0
461 -462 639 0
-461 -462 -639 0
463 464 -640 0
-463 464 640 0
463 -464 640 0
-463 -464 -640 0
465 466 -641 0
-465 466 641 0
465 -466 641 0
-465 -466 -641 0
467 468 -642 0
-467 468 642 0
467 -468 642 0
-467 -468 -642 0
469 470 -643 0
-469 470 643 0
469 -470 643 0
-469 -470 -643 0
471 472 -644 0
-471 472 644 0
471 -472 644 0
-471 -472 -644 0
473 474 -645 0
-473 474 645 0
473 -474 645 0
-473 -474 -645 0
475 476 -646 0
-475 476 646 0
475 -476 646 0
-475 -476 -646 0
477 478 -647 0
-477 478 647 0
477 -478 647 0
-477 -478 -647 0
479 480 -648 0
-479 480 648 0
479 -480 648 0
-479 -480 -648 0
481 482 -649 0
-481 482 649 0
481 -482 649 0
-481 -482 -649 0
483 484 -650 0
-483 484 650 0
483 -484 650 0
-483 -484 -650 0
485 486 -651 0
-485 486 651 0
485 -486 651 0
-485 -486 -651 0
487 488 -652 0
-487 488 652 0
487 -488 652 0
-487 -488 -652 0
489 490 -653 0
-489 490 653 0
489 -490 653 0
-489 -490 -653 0
491 492 -654 0
-491 492 654 0
491 -492 654 0
-491 -492 -654 0
493 494 -655 0
-493 494 655 0
493 -494 655 0
-493 -494 -655 0
495 496 -656 0
-495 496 656 0
495 -496 656 0
-495 -496 -656 0
497 498 -657 0
-497 498 657 0
497 -498 657 0
-497 -498 -657 0
499 500 -658 0
-499 500 658 0
499 -500 658 0
-499 -500 -658 0
501 502 -659 0
-501 502 659 0
501 -502 659 0
-501 -502 -659 0
503 504 -660 0
-503 504 660 0
503 -504 660 0
-503 -504 -660 0
505 506 -661 0
-505 506 661 0
505 -506 661 0
-505 -506 -661 0
507 508 -662 0
-507 508 662 0
507 -508 662 0
-507 -508 -662 0
509 510 -663 0
-509 510 663 0
509 -510 663 0
-509 -510 -663 0
511 512 -664 0
-511 512 664 0
511 -512 664 0
-511 -512 -664 0
513 514 -665 0
-513 514 665 0
513 -514 665 0
-513 -514 -665 0
515 516 -666 0
-515 516 666 0
515 -516 666 0
-515 -516 -666 0
517 518 -667 0
-517 518 667 0
517 -518 667 0
-517 -518 -667 0
519 520 -668 0
-519 520 668 0
519 -520 668 0
-519 -520 -668 0
521 522 -669 0
-521 522 669 0
521 -522 669 0
-521 -522 -669 0
523 524 -670 0
-523 524 670 0
523 -524 670 0
-523 -524 -670 0
525 526 -671 0
-525 526 671 0
525 -526 671 0
-525 -526 -671 0
527 528 -672 0
-527 528 672 0
527 -528 672 0
-527 -528 -672 0
529 530 -673 0
-529 530 673 0
529 -530 673 0
-529 -530 -673 0
531 532 -674 0
-531 532 674 0
531 -532 674 0
-531 -532 -674 0
533 534 -675 0
-533 534 675 0
533 -534 675 0
-533 -534 -675 0
535 536 -676 0
-535 536 676 0
535 -536 676 0
-535 -536 -676 0
537 538 -677 0
-537 538 677 0
537 -538 677 0
-537 -538 -677 0
539 540 -678 0
-539 540 678 0
539 -540 678 0
-539 -540 -678 0
541 542 -679 0
-541 542 679 0
541 -542 679 0
-541 -542 -679 0
543 544 -680 0
-543 544 680 0
543 -544 680 0
-543 -544 -680 0
545 546 -681 0
-545 546 681 0
545 -546 681 0
-545 -546 -681 0
547 548 -682 0
-547 548 682 0
547 -548 682 0
-547 -548 -682 0
549 550 -683 0
-549 550 683 0
549 -550 683 0
-549 -550 -683 0
551 552 -684 0
-551 552 684 0
551 -552 684 0
-551 -552 -684 0
553 554 -685 0
-553 554 685 0
553 -554 685 0
-553 -554 -685 0
555 556 -686 0
-555 556 686 0
555 -556 686 0
-555 -556 -686 0
557 558 -687 0
-557 558 687 0
557 -558 687 0
-557 -558 -687 0
559 560 -688 0
-559 560 688 0
559 -560 688 0
-559 -560 -688 0
561 562 -689 0
-561 562 689 0
561 -562 689 0
-561 -562 -689 0
563 564 -690 0
-563 564 690 0
563 -564 690 0
-563 -564 -690 0
565 566 -691 0
-565 566 691 0
565 -566 691 0
-565 -566 -691 0
567 568 -692 0
-567 568 692 0
567 -568 692 0
-567 -568 -692 0
569 570 -693 0
-569 570 693 0
569 -570 693 0
-569 -570 -693 0
571 572 -694 0
-571 572 694 0
571 -572 694 0
-571 -572 -694 0
573 574 -695 0
-573 574 695 0
573 -574 695 0
-573 -574 -695 0
575 576 -696 0
-575 576 696 0
575 -576 696 0
-575 -576 -696 0
577 578 -697 0
-577 578 697 0
577 -578 697 0
-577 -578 -697 0
579 580 -698 0
-579 580 698 0
579 -580 698 0
-579 -580 -698 0
581 582 -699 0
-581 582 699 0
581 -582 699 0
-581 -582 -699 0
583 584 -700 0
-583 584 700 0
583 -584 700 0
-583 -584 -700 0
585 586 -701 0
-585 586 701 0
585 -586 701 0
-585 -586 -701 0
587 588 -702 0
-587 588 702 0
587 -588 702 0
-587 -588 -702 0
589 590 -703 0
-589 590 703 0
589 -590 703 0
-589 -590 -703 0
591 592 -704 0
-591 592 704 0
591 -592 704 0
-591 -592 -704 0
593 594 -705 0
-593 594 705 0
593 -594 705 0
-593 -594 -705 0
595 596 -706 0
-595 596 706 0
595 -596 706 0
-595 -596 -706 0
597 598 -707 0
-597 598 707 0
597 -598 707 0
-597 -598 -707 0
599 600 -708 0
-599 600 708 0
599 -600 708 0
-599 -600 -708 0
601 602 -709 0
-601 602 709 0
601 -602 709 0
-601 -602 -709 0
603 604 -710 0
-603 604 710 0
603 -604 710 0
-603 -604 -710 0
605 606 -711 0
-605 606 711 0
605 -606 711 0
-605 -606 -711 0
607 608 -712 0
-607 608 712 0
607 -608 712 0
-607 -608 -712 0
609 610 -713 0
-609 610 713 0
609 -610 713 0
-609 -610 -713 0
611 612 -714 0
-611 612 714 0
611 -612 714 0
-611 -612 -714 0
613 407 -715 0
-613 407 715 0
613 -407 715 0
-613 -407 -715 0
614 615 -716 0
-614 615 716 0
614 -615 716 0
-614 -615 -716 0
616 617 -717 0
-616 617 717 0
616 -617 717 0
-616 -617 -717 0
618 619 -718 0
-618 619 718 0
618 -619 718 0
-618 -619 -718 0
620 621 -719 0
-620 621 719 0
620 -621 719 0
-620 -621 -719 0
622 623 -720 0
-622 623 720 0
622 -623 720 0
-622 -623 -720 0
624 625 -721 0
-624 625 721 0
624 -625 721 0
-624 -625 -721 0
626 627 -722 0
-626 627 722 0
626 -627 722 0
-626 -627 -722 0
628 629 -723 0
-628 629 723 0
628 -629 723 0
-628 -629 -723 0
630 631 -724 0
-630 631 724 0
630 -631 724 0
-630 -631 -724 0
632 633 -725 0
-632 633 725 0
632 -633 725 0
-632 -633 -725 0
634 635 -726 0
-634 635 726 0
634 -635 726 0
-634 -635 -726 0
636 637 -727 0
-636 637 727 0
636 -637 727 0
-636 -637 -727 0
638 639 -728 0
-638 639 728 0
638 -639 728 0
-638 -639 -728 0
640 641 -729 0
-640 641 729 0
640 -641 729 0
-640 -641 -729 0
642 643 -730 0
-642 643 730 0
642 -643 730 0
-642 -643 -730 0
644 645 -731 0
-644 645 731 0
644 -645 731 0
-644 -645 -731 0
646 647 -732 0
-646 647 732 0
646 -647 732 0
-646 -647 -732 0
648 649 -733 0
-648 649 733 0
648 -649 733 0
-648 -649 -733 0
650 651 -734 0
-650 651 734 0
650 -651 734 0
-650 -651 -734 0
652 653 -735 0
-652 653 735 0
652 -653 735 0
-652 -653 -735 0
654 655 -736 0
-654 655 736 0
654 -655 736 0
-654 -655 -736 0
656 657 -737 0
-656 657 737 0
656 -657 737 0
-656 -657 -737 0
658 659 -738 0
-658 659 738 0
658 -659 738 0
-658 -659 -738 0
660 661 -739 0
-660 661 739 0
660 -661 739 0
-660 -661 -739 0
662 663 -740 0
-662 663 740 0
662 -663 740 0
-662 -663 -740 0
664 665 -741 0
-664 665 741 0
664 -665 741 0
-664 -665 -741 0
666 667 -742 0
-666 667 742 0
666 -667 742 0
-666 -667 -742 0
668 669 -743 0
-668 669 743 0
668 -669 743 0
-668 -669 -743 0
670 671 -744 0
-670 671 744 0
670 -671 744 0
-670 -671 -744 0
672 673 -745 0
-672 673 745 0
672 -673 745 0
-672 -673 -745 0
674 675 -746 0
-674 675 746 0
674 -675 746 0
-674 -675 -746 0
676 677 -747 0
-676 677 747 0
676 -677 747 0
-676 -677 -747 0
678 679 -748 0
-678 679 748 0
678 -679 748 0
-678 -679 -748 0
680 681 -749 0
-680 681 749 0
680 -681 749 0
-680 -681 -749 0
682 683 -750 0
-682 683 750 0
682 -683 750 0
-682 -683 -750 0
684 685 -751 0
-684 685 751 0
684 -685 751 0
-684 -685 -751 0
686 687 -752 0
-686 687 752 0
686 -687 752 0
-686 -687 -752 0
688 689 -753 0
-688 689 753 0
688 -689 753 0
-688 -689 -753 0
690 691 -754 0
-690 691 754 0
690 -691 754 0
-690 -691 -754 0
692 693 -755 0
-692 693 755 0
692 -693 755 0
-692 -693 -755 0
694 695 -756 0
-694 695 756 0
694 -695 756 0
-694 -695 -756 0
696 697 -757 0
-696 697 757 0
696 -697 757 0
-696 -697 -757 0
698 699 -758 0
-698 699 758 0
698 -699 758 0
-698 -699 -758 0
700 701 -759 0
-700 701 759 0
700 -701 759 0
-700 -701 -759 0
702 703 -760 0
-702 703 760 0
702 -703 760 0
-702 -703 -760 0
704 705 -761 0
-704 705 761 0
704 -705 761 0
-704 -705 -761 0
706 707 -762 0
-706 707 762 0
706 -707 762 0
-706 -707 -762 0
708 709 -763 0
-708 709 763 0
708 -709 763 0
-708 -709 -763 0
710 711 -764 0
-710 711 764 0
710 -711 764 0
-710 -711 -764 0
712 713 -765 0
-712 713 765 0
712 -713 765 0
-712 -713 -765 0
714 715 -766 0
-714 715 766 0
714 -715 766 0
-714 -715 -766 0
716 717 -767 0
-716 717 767 0
716 -717 767 0
-716 -717 -767 0
718 719 -768 0
-718 719 768 0
718 -719 768 0
-718 -719 -768 0
720 721 -769 0
-720 721 769 0
720 -721 769 0
-720 -721 -769 0
722 723 -770 0
-722 723 770 0
722 -723 770 0
-722 -723 -770 0
724 725 -771 0
-724 725 771 0
724 -725 771 0
-724 -725 -771 0
726 727 -772 0
-726 727 772 0
726 -727 772 0
-726 -727 -772 0
728 729 -773 0
-728 729 773 0
728 -729 773 0
-728 -729 -773 0
730 731 -774 0
-730 731 774 0
730 -731 774 0
-730 -731 -774 0
732 733 -775 0
-732 733 775 0
732 -733 775 0
-732 -733 -775 0
734 735 -776 0
-734 735 776 0
734 -735 776 0
-734 -735 -776 0
736 737 -777 0
-736 737 777 0
736 -737 777 0
-736 -737 -777 0
738 739 -778 0
-738 739 778 0
738 -739 778 0
-738 -739 -778 0
740 741 -779 0
-740 741 779 0
740 -741 779 0
-740 -741 -779 0
742 743 -780 0
-742 743 780 0
742 -743 780 0
-742 -743 -780 0
744 745 -781 0
-744 745 781 0
744 -745 781 0
-744 -745 -781 0
746 747 -782 0
-746 747 782 0
746 -747 782 0
-746 -747 -782 0
748 749 -783 0
-748 749 783 0
748 -749 783 0
-748 -749 -783 0
750 751 -784 0
-750 751 784 0
750 -751 784 0
-750 -751 -784 0
752 753 -785 0
-752 753 785 0
752 -753 785 0
-752 -753 -785 0
754 755 -786 0
-754 755 786 0
754 -755 786 0
-754 -755 -786 0
756 757 -787 0
-756 757 787 0
756 -757 787 0
-756 -757 -787 0
758 759 -788 0
-758 759 788 0
758 -759 788 0
-758 -759 -788 0
760 761 -789 0
-760 761 789 0
760 -761 789 0
-760 -761 -789 0
762 763 -790 0
-762 763 790 0
762 -763 790 0
-762 -763 -790 0
764 765 -791 0
-764 765 791 0
764 -765 791 0
-764 -765 -791 0
767 768 -792 0
-767 768 792 0
767 -768 792 0
-767 -768 -792 0
769 770 -793 0
-769 770 793 0
769 -770 793 0
-769 -770 -793 0
771 772 -794 0
-771 772 794 0
771 -772 794 0
-771 -772 -794 0
773 774 -795 0
-773 774 795 0
773 -774 795 0
-773 -774 -795 0
775 776 -796 0
-775 776 796 0
775 -776 796 0
-775 -776 -796 0
777 778 -797 0
-777 778 797 0
777 -778 797 0
-777 -778 -797 0
779 780 -798 0
-779 780 798 0
779 -780 798 0
-779 -780 -798 0
781 782 -799 0
-781 782 799 0
781 -782 799 0
-781 -782 -799 0
783 784 -800 0
-783 784 800 0
783 -784 800 0
-783 -784 -800 0
785 786 -801 0
-785 786 801 0
785 -786 801 0
-785 -786 -801 0
787 788 -802 0
-787 788 802 0
787 -788 802 0
-787 -788 -802 0
789 790 -803 0
-789 790 803 0
789 -790 803 0
-789 -790 -803 0
791 766 -804 0
-791 766 804 0
791 -766 804 0
-791 -766 -804 0
792 793 -805 0
-792 793 805 0
792 -793 805 0
-792 -793 -805 0
794 795 -806 0
-794 795 806 0
794 -795 806 0
-794 -795 -806 0
796 797 -807 0
-796 797 807 0
796 -797 807 0
-796 -797 -807 0
798 799 -808 0
-798 799 808 0
798 -799 808 0
-798 -799 -808 0
800 801 -809 0
-800 801 809 0
800 -801 809 0
-800 -801 -809 0
802 803 -810 0
-802 803 810 0
802 -803 810 0
-802 -803 -810 0
805 806 -811 0
-805 806 811 0
805 -806 811 0
-805 -806 -811 0
807 808 -812 0
-807 808 812 0
807 -808 812 0
-807 -808 -812 0
809 810 -813 0
-809 810 813 0
809 -810 813 0
-809 -810 -813 0
811 812 -814 0
-811 812 814 0
811 -812 814 0
-811 -812 -814 0
813 804 -815 0
-813 804 815 0
813 -804 815 0
-813 -804 -815 0
814 815 -408 0
-814 815 408 0
814 -815 408 0
-814 -815 -408 0
